Traveling Salesman Problem/TSP_generados/Aleatorio1620390861_6.tsp
NAME: Aleatorio1620390861_6.tsp
COMMENT: Randomly generated scenario
TYPE: TSP
DIMENSION: 6
EDGE_WEIGHT_TYPE: ATT
NODE_COORD_SECTION
1 3.62 18.15
2 42.89 13.37
3 3.4 41.89
4 25.26 20.07
5 33.79 19.51
6 38.09 23.66
