Traveling Salesman Problem/TSP_generados/Aleatorio1620390861_6.opt.tour
NAME: Aleatorio1620390861_6.opt.tour
COMMENT: Optimal solution for Aleatorio1620390861_6 (115.53493012903161)
TYPE: TOUR
DIMENSION: 6
TOUR_SECTION
1 3 6 2 5 4
-1
EOF
